c --- [ banner ] -------------------------------------------------------------
c 
c CaDiCaL Radically Simplified CDCL SAT Solver
c Copyright (c) 2016-2021 A. Biere, M. Fleury, N. Froleyks
c 
c Version 1.5.2 a5f15211db36c3956764e18194dd5bd63bf3b5e6
c g++ (GCC) 9.3.0 -Wall -Wextra -O3 -DNDEBUG
c Fri Oct 21 01:27:37 EDT 2022 Linux gra-login3 3.10.0-1160.66.1.el7.x86_64 x86_64
c 
c --- [ limit ] --------------------------------------------------------------
c 
c setting conflict limit to 200000 conflicts (due to '200000')
c 
c --- [ parsing input ] ------------------------------------------------------
c 
c reading DIMACS file from '33.cubes4646.adj'
c opening file to read '33.cubes4646.adj'
c found 'p cnf 6160 1595477' header
c parsed 1595477 clauses in 19.29 seconds process time
c closing file '33.cubes4646.adj'
c after reading 1457566788 bytes 1390.0 MB
c 
c --- [ options ] ------------------------------------------------------------
c 
c all options are set to their default value
c 
c --- [ solving ] ------------------------------------------------------------
c 
c time measured in process time since initialization
c 
c  seconds    reductions  redundant   irredundant
c          MB     restarts       trail       variables
c            level   conflicts       glue         remaining
c 
c * 19.29 1376  0 0   0    0    0  0% 0 1595422 2433 39%
c { 20.04 1415  0 0   0    0    0  0% 0 1595422 2433 39%
c i 23.15 1489 497 0   6   56   44 33% 18 1595422 2432 39%
c i 24.09 1497 431 0  10   69   54 32% 19 1595422 2431 39%
c i 24.16 1498 415 0  11   74   57 31% 19 1595422 2429 39%
c i 24.26 1498 411 0  12   75   57 31% 19 1595422 2428 39%
c i 24.39 1498 402 0  12   78   59 31% 18 1595422 2427 39%
c i 24.52 1499 391 0  13   83   63 31% 21 1595422 2426 39%
c i 25.23 1504 346 0  17  111   81 30% 39 1595422 2425 39%
c i 26.19 1510 248 0  22  154  112 28% 31 1595422 2424 39%
c i 26.20 1510 247 0  22  155  112 28% 31 1595422 2423 39%
c i 26.21 1510 245 0  22  156  112 28% 30 1595422 2422 39%
c i 26.22 1510 242 0  22  158  113 28% 30 1595422 2421 39%
c i 26.23 1510 239 0  22  160  114 28% 30 1595422 2420 39%
c i 26.25 1510 228 0  22  168  121 28% 29 1595422 2419 39%
c i 26.29 1510 222 0  22  173  125 28% 29 1595422 2418 39%
c i 26.40 1510 216 0  22  184  133 28% 29 1595422 2417 39%
c i 26.51 1511 205 0  22  204  152 28% 28 1595422 2416 39%
c i 27.04 1513 188 0  26  241  184 28% 31 1595422 2415 39%
c i 27.26 1515 185 0  29  250  192 28% 32 1595422 2414 39%
c 
c  seconds     reductions  redundant    irredundant
c          MB      restarts       trail        variables
c             level   conflicts       glue          remaining
c 
c i 27.45 1516 184 0  31  257  198 28% 32 1595422 2413 39%
c i 27.92 1517 168 0  33  291  228 28% 31 1595422 2412 39%
c i 28.05 1518 166 0  33  300  235 28% 30 1595422 2411 39%
c - 31.72 1506 166 1  33  300  234 28% 30 373987 2411 39%
c i 32.13 1404 165 1  35  315  246 28% 31 373987 2376 39%
c i 32.17 1404 163 1  35  318  248 28% 31 373987 2375 39%
c i 32.25 1404 160 1  35  325  254 28% 30 373987 2374 39%
c i 32.38 1404 153 1  35  342  269 28% 30 373987 2370 38%
c i 32.65 1404 147 1  35  369  290 28% 29 373987 2330 38%
c i 32.89 1404 128 1  37  454  353 28% 29 373987 2328 38%
c i 32.92 1404 124 1  37  469  365 28% 29 373987 2327 38%
c i 33.05 1404 120 1  37  489  382 28% 29 373987 2326 38%
c i 33.12 1404 119 1  37  494  385 28% 28 373987 2325 38%
c i 33.14 1404 119 1  37  498  388 28% 28 373987 2324 38%
c i 33.14 1404 118 1  37  499  388 28% 28 373987 2323 38%
c i 33.14 1404 118 1  37  500  388 28% 28 373987 2322 38%
c i 33.44 1404 116 1  39  540  425 28% 29 373987 2321 38%
c i 33.62 1404 114 1  39  558  440 28% 29 373987 2320 38%
c i 33.64 1404 113 1  39  566  446 28% 29 373987 2319 38%
c i 33.65 1404 113 1  39  567  446 28% 29 373987 2318 38%
c 
c  seconds     reductions  redundant   irredundant
c          MB      restarts       trail       variables
c             level   conflicts       glue         remaining
c 
c i 34.27 1404 101 1  39  649  518 28% 27 373987 2317 38%
c i 34.33 1404 97 1  39  688  546 28% 26 373987 2316 38%
c i 34.43 1404 95 1  39  707  563 28% 26 373987 2315 38%
c i 34.53 1404 93 1  39  731  583 28% 26 373987 2314 38%
c i 34.56 1404 92 1  39  746  593 28% 26 373987 2313 38%
c i 34.60 1404 90 1  39  779  618 28% 26 373987 2312 38%
c i 34.68 1404 84 1  39  854  673 29% 25 373987 2311 38%
c } 34.79 1404 74 1  39 1002  767 29% 24 373987 2311 38%
c [ 34.79 1404  0 1  39 1002  767  0% 0 373987 2311 38%
c O 34.80 1404  0 1  39 1003  767 13% 0 373987 2311 38%
c i 34.80 1404  0 1  39 1003  767 13% 0 373987 2276 37%
c i 34.80 1404  1 1  39 1004  767 13% 0 373987 2259 37%
c i 35.10 1404  7 1  39 1045  792 22% 5 373987 2258 37%
c i 35.10 1404  7 1  39 1046  792 22% 5 373987 2257 37%
c i 35.10 1404  7 1  39 1048  793 23% 5 373987 2256 37%
c i 35.16 1404  9 1  39 1055  799 24% 6 373987 2255 37%
c i 35.20 1404 14 1  39 1072  813 26% 11 373987 2254 37%
c i 35.21 1404 15 1  39 1079  815 26% 11 373987 2253 37%
c i 35.25 1404 19 1  39 1115  840 28% 15 373987 2252 37%
c i 35.25 1404 19 1  39 1127  844 29% 16 373987 2251 37%
c 
c  seconds    reductions  redundant   irredundant
c          MB     restarts       trail       variables
c            level   conflicts       glue         remaining
c 
c i 35.25 1404 19 1  39 1128  844 29% 16 373987 2250 37%
c i 35.26 1404 20 1  39 1147  858 29% 17 373987 2249 37%
c i 35.29 1404 22 1  39 1234  907 31% 18 373987 2248 36%
c - 36.21 1501 22 2  39 1243  815 31% 19 322851 2248 36%
c i 36.49 1501 23 2  39 1437  937 31% 20 322851 2247 36%
c i 36.56 1501 23 2  39 1644 1069 32% 20 322851 2246 36%
c i 36.57 1501 23 2  39 1664 1078 32% 20 322851 2245 36%
c i 36.57 1501 22 2  39 1680 1091 32% 20 322851 2244 36%
c i 36.60 1501 22 2  39 1730 1123 32% 20 322851 2243 36%
c i 36.72 1501 22 2  40 2077 1297 32% 20 322851 2240 36%
c - 37.29 1500 22 3  40 2602 1240 32% 19 322831 2240 36%
c ] 37.75 1500 22 3  40 3005 1477 56% 19 322831 2240 36%
c { 37.75 1500 74 3  40 3005 1477 80% 24 322831 2240 36%
c F 37.82 1500 74 3  40 3006 1478 80% 24 322831 2240 36%
c i 38.82 1500 63 3  53 3306 1690 73% 23 322831 2239 36%
c i 40.62 1500 50 3  64 4043 2261 64% 21 322831 2238 36%
c i 40.81 1500 50 3  67 4059 2272 64% 21 322831 2237 36%
c i 41.53 1500 51 3  93 4163 2355 63% 22 322831 2236 36%
c i 41.60 1500 51 3  96 4173 2362 63% 22 322831 2219 36%
c i 41.65 1500 51 3  97 4177 2365 63% 22 322831 2217 36%
c 
c  seconds    reductions  redundant   irredundant
c          MB     restarts       trail       variables
c            level   conflicts       glue         remaining
c 
c i 41.94 1500 51 3 107 4231 2409 62% 22 322831 2216 36%
c i 42.08 1500 50 3 107 4356 2513 62% 22 322831 2215 36%
c i 42.08 1500 50 3 107 4357 2513 62% 22 322831 2214 36%
c i 42.10 1500 49 3 107 4395 2545 62% 22 322831 2213 36%
c - 42.54 1495 49 4 107 4412 1878 62% 22 322534 2213 36%
c i 42.87 1495 50 4 119 4464 1923 61% 22 322534 2212 36%
c i 44.16 1495 50 4 151 4660 2083 60% 23 322534 2211 36%
c i 46.08 1495 55 4 202 4903 2292 58% 24 322534 2210 36%
c d 47.09 1495 54 4 227 5000 2371 58% 24 282374 2197 36%
c 3 47.12 1495 54 4 227 5000 3634 58% 24 282372 2197 36%
c 3 47.13 1495 54 4 227 5000 3870 58% 24 282372 2197 36%
c 2 47.19 1495 54 4 227 5000 3869 58% 24 282371 2195 36%
c p 55.88 1496 54 4 227 5000 10744 58% 24 282371 2135 35%
c d 56.37 1496 54 4 227 5000 10225 58% 24 282187 2134 35%
c # 57.41 1496 46 4 240 6007 10925 56% 22 282187 2134 35%
c - 59.33 1363 41 5 240 6674 2994 54% 20 282187 2134 35%
c } 59.84 1363 40 5 247 7007 3252 54% 20 282187 2134 35%
c [ 59.84 1363 22 5 247 7007 3252 56% 19 282187 2134 35%
c - 63.73 1364 21 6 249 9286 3186 48% 18 282187 2134 35%
c I 64.64 1364 21 6 249 10010 3632 48% 18 282187 2134 35%
c 
c  seconds    reductions   redundant   irredundant
c          MB     restarts        trail       variables
c            level    conflicts       glue         remaining
c 
c - 67.53 1364 28 7 251 12332 3616 48% 23 282187 2134 35%
c 3 69.67 1364 31 7 252 15003 6630 48% 26 282187 2134 35%
c 3 69.68 1364 31 7 252 15003 6841 48% 26 282187 2134 35%
c p 73.78 1364 31 7 252 15003 12842 48% 26 282187 2133 35%
c ] 74.00 1364 31 7 252 15012 12849 48% 26 282187 2133 35%
c { 74.00 1364 40 7 252 15012 12849 54% 20 282187 2133 35%
c B 74.02 1364 40 7 252 15013 12850 54% 20 282187 2133 35%
c - 76.96 1366 39 8 301 15816 4552 52% 20 282184 2133 35%
c s 85.35 1366 35 8 468 18715 6440 50% 20 279363 2133 35%
c v 89.80 1366 35 8 468 18715 6440 50% 20 279331 2133 35%
c t 89.92 1366 35 8 468 18715 6430 50% 20 279308 2133 35%
c e 90.93 1366 35 8 468 18715 6136 50% 20 277081 848 14%
c s 91.06 1366 35 8 468 18715 6136 50% 20 275749 848 14%
c - 94.89 1366 35 9 557 19734 4922 70% 20 275749 848 14%
c W 96.86 1366 33 9 605 21015 5678 71% 20 275749 848 14%
c - 99.19 1366 30 10 643 24055 5004 70% 19 275749 848 14%
c F 106.19 1366 29 10 815 28019 7683 70% 19 275749 848 14%
c - 107.92 1367 29 11 913 28809 6041 70% 19 275749 848 14%
c 2 109.48 1367 29 11 1000 30003 7423 69% 19 275747 848 14%
c p 114.75 1367 29 11 1000 30003 10571 69% 19 275747 846 14%
c 
c  seconds     reductions      redundant   irredundant
c           MB      restarts          trail       variables
c             level      conflicts        glue        remaining
c 
c d 115.04 1367 29 11 1000 30003 10480 69% 19 275740 845 14%
c } 116.01 1367 29 11 1038 31012 11075 70% 19 275740 845 14%
c [ 116.01 1367 31 11 1038 31012 11075 128% 26 275740 845 14%
c - 117.49 1367 29 12 1039 33994 6566 113% 24 275740 845 14%
c B 118.19 1367 30 12 1041 36020 7899 106% 25 275740 845 14%
c - 125.47 1367 28 13 1043 39613 7077 97% 24 275740 845 14%
c W 139.50 1367 27 13 1045 45021 10714 89% 23 275740 845 14%
c - 141.80 1367 27 14 1045 45665 7874 89% 23 275740 845 14%
c p 154.99 1367 26 14 1046 50004 14049 85% 22 275740 845 14%
c s 157.69 1367 26 14 1046 52096 15614 84% 22 274785 845 14%
c v 161.80 1367 26 14 1046 52096 15614 84% 22 274752 845 14%
c t 161.94 1367 26 14 1046 52096 15608 84% 22 274749 845 14%
c s 163.14 1368 26 14 1046 52096 15608 84% 22 273785 845 14%
c - 164.63 1368 26 15 1046 52151 9023 84% 22 273785 845 14%
c O 168.97 1368 25 15 1047 55024 10574 82% 22 273785 845 14%
c - 170.79 1368 25 16 1050 59050 8900 81% 21 273785 845 14%
c ] 171.27 1368 25 16 1051 60359 9694 81% 21 273785 845 14%
c 1 171.27 1368 25 16 1051 60359 9694 81% 21 273785 845 14%
c 
c --- [ writing output ] -----------------------------------------------------
c 
c writing simplified CNF to DIMACS file 'simp/33.cubes4646.adj.simp1'
c * 171.27 1368 25 16 1051 60359 9694 81% 21 273785 845 14%
c opening file to write 'simp/33.cubes4646.adj.simp1'
c writing 'p cnf 6160 273785' header
c closing file 'simp/33.cubes4646.adj.simp1'
c after writing 123842520 bytes 118.1 MB
c wrote 273785 clauses in 0.87 seconds process time
c 
c --- [ writing extension ] --------------------------------------------------
c 
c writing extension stack to 'simp/33.cubes4646.adj.ext1'
c opening file to write 'simp/33.cubes4646.adj.ext1'
c closing file 'simp/33.cubes4646.adj.ext1'
c after writing 84881 bytes 0.1 MB
c wrote 3814 witnesses in 0.00 seconds process time
c 
c --- [ result ] -------------------------------------------------------------
c 
s SATISFIABLE
c 
c --- [ run-time profiling ] -------------------------------------------------
c 
c process time taken by individual solving procedures
c (percentage relative to process time for solving)
c 
c       116.36   76.56% search
c        57.71   37.97% stable
c        56.44   37.14% unstable
c        35.62   23.44% simplify
c        20.69   13.61% probe
c        19.29   12.69% parse
c         8.75    5.76% vivify
c         3.85    2.53% elim
c         1.46    0.96% walk
c         0.75    0.49% lucky
c         0.61    0.40% subsume
c         0.17    0.11% ternary
c   =================================
c       151.98   88.29% solve
c 
c last line shows process time for solving
c (percentage relative to total process time)
c 
c --- [ statistics ] ---------------------------------------------------------
c 
c chronological:             10923        18.10 %  of conflicts
c conflicts:                 60359       397.16    per second
c decisions:                129004       848.83    per second
c eliminated:                 1285        20.86 %  of all variables
c fixed:                       871        14.14 %  of all variables
c learned:                   59050        97.83 %  per conflict
c learned_lits:            9967867       100.00 %  learned literals
c minimized:                     0         0.00 %  learned literals
c shrunken:                6628911        66.50 %  learned literals
c minishrunken:             669113         6.71 %  learned literals
c propagations:            5644160         0.04 M  per second
c reduced:                   29371        48.66 %  per conflict
c rephased:                     10      6035.90    interval
c restarts:                   1051        57.43    interval
c stabilizing:                   3        65.20 %  of conflicts
c substituted:                  15         0.24 %  of all variables
c subsumed:                  25873         0.73 %  of all clauses
c strengthened:              16878         0.47 %  of all clauses
c ternary:                    4261         0.79 %  of resolved
c vivified:                     87         0.00 %  of all clauses
c walked:                        2     30179.50    interval
c weakened:                   2943         3.09    average size
c 
c seconds are measured in process time for solving
c 
c --- [ resources ] ----------------------------------------------------------
c 
c total process time since initialization:       172.14    seconds
c total real time since initialization:          172.25    seconds
c maximum resident set size of process:         1640.80    MB
c 
c --- [ shutting down ] ------------------------------------------------------
c 
c exit 10
WARNING! DIMACS header mismatch: wrong number of variables.
============================[ Problem Statistics ]=============================
|                                                                             |
|  Number of variables:          3491                                         |
|  Number of clauses:          273791                                         |
|  Parse time:                   1.62 s                                       |
|  Simplification time:          0.03 s                                       |
|                                                                             |
============================[ Search Statistics ]====================================================
| Conflicts |          ORIGINAL         |          LEARNT          | Num Sols |      SUBGRAPHS      |
|           |    Vars  Clauses Literals |    Limit  Clauses Lit/Cl |          | Canonical Noncanon. |
=====================================================================================================
|       124 |    3397   273815 26593029 |     2000      124     69 |        0 |        20        24 |
|       291 |    3397   273832 26593272 |     2000      291     70 |        0 |        41        41 |
|       518 |    3397   273834 26593293 |     2000      518     77 |        0 |        45        43 |
|       861 |    3397   273840 26593527 |     2000      861     82 |        0 |        53        49 |
|      1404 |    3397   273877 26594334 |     2000     1404     80 |        0 |        81        86 |
|      2223 |    3397   273937 26595326 |     3603     1226     52 |        0 |       111       146 |
|      3410 |    3397   273985 26596305 |     3603     2413     69 |        0 |       135       194 |
|      5357 |    3397   274224 26599227 |     5002     2559     57 |        0 |       213       433 |
|      8460 |    3397   274765 26606458 |     6310     3170     40 |        0 |       349       974 |
|     12585 |    3397   275046 26611334 |     7558     4143     39 |        0 |       478      1255 |
|     18699 |    3397   275394 26617471 |     8781     6480     51 |        0 |       633      1603 |
|     29013 |    3397   277059 26645568 |    11208     7421     40 |        0 |      1118      3268 |
|     43606 |    3397   278678 26668053 |    13611    10217     41 |        0 |      1357      4887 |
|     63410 |    3397   279021 26673749 |    16014    15824     48 |        0 |      1493      5230 |
|     93353 |    3397   279772 26684983 |    20822    10175     19 |        0 |      1656      5981 |
|    138577 |    3397   281207 26708102 |    24421    22398     55 |        0 |      2008      7416 |
|    207118 |    3397   284064 26753137 |    30406    23924     54 |        0 |      2630     10273 |
|    309328 |    3397   287748 26818359 |    37615    25943     43 |        0 |      3489     13957 |
|    470460 |    3334   301091 27012965 |    46023    42883     51 |        1 |      5753     27299 |
=====================================================================================================
Number of solutions   : 1
Canonical subgraphs   : 5972           (5 /sec)
          order  3    : 1              (166667 /sec)
          order  4    : 1              (500000 /sec)
          order  5    : 1              (200000 /sec)
          order  6    : 1              (55556 /sec)
          order  7    : 1              (8772 /sec)
          order  8    : 2              (1363 /sec)
          order  9    : 5              (282 /sec)
          order 10    : 10             (50 /sec)
          order 11    : 41             (14 /sec)
          order 12    : 182            (6 /sec)
          order 13    : 769            (4 /sec)
          order 14    : 1196           (5 /sec)
          order 15    : 1131           (4 /sec)
          order 16    : 1317           (5 /sec)
          order 17    : 877            (5 /sec)
          order 18    : 355            (5 /sec)
          order 19    : 65             (5 /sec)
          order 20    : 9              (5 /sec)
          order 21    : 7              (6 /sec)
          order 22    : 1              (0 /sec)
Noncanonical subgraphs: 27784          (73 /sec)
          order  3    : 0              (-nan /sec)
          order  4    : 0              (-nan /sec)
          order  5    : 0              (-nan /sec)
          order  6    : 0              (-nan /sec)
          order  7    : 0              (-nan /sec)
          order  8    : 0              (-nan /sec)
          order  9    : 0              (-nan /sec)
          order 10    : 0              (-nan /sec)
          order 11    : 0              (-nan /sec)
          order 12    : 0              (-nan /sec)
          order 13    : 1732           (20585 /sec)
          order 14    : 3228           (2220 /sec)
          order 15    : 8196           (302 /sec)
          order 16    : 14196          (42 /sec)
          order 17    : 395            (49 /sec)
          order 18    : 31             (29 /sec)
          order 19    : 0              (-nan /sec)
          order 20    : 0              (-nan /sec)
          order 21    : 0              (-nan /sec)
Canonicity checking   : 1299.35 s
Noncanonicity checking: 379.436 s
Total canonicity time : 1678.78 s
database reductions   : 39
restarts              : 1085
conflicts             : 528950         (269 /sec)
decisions             : 710435         (0.00 % random) (362 /sec)
propagations          : 25319625       (12900 /sec)
conflict literals     : 45233131       (56.52 % deleted)
actual reward         : 0.271171
Memory used           : 374.00 MB
CPU time              : 1962.72 s

UNSATISFIABLE
